<CONFIG>
	<PRINCIPAL>
			<X>37</X>
			<Y>101</Y>
			<WIDTH>1431</WIDTH>
			<HEIGHT>844</HEIGHT>
			<INDEXADOR>TRUE</INDEXADOR>
			<TOOLBARSDOCKWIDGETS>AAAA/wAAAAD9AAAAAgAAAAAAAAEKAAAC8/wCAAAABPsAAAASAEkAbgBkAGUAeABhAGQAbwByAQAAAEIAAAIiAAAA+gEAAAX7AAAAIgBtAHUAaQBfAHIAZQBzAHUAbQBlAG4AQwB1AGUAbgB0AGEBAAACZwAAAM4AAABeAQAABfsAAAAAAAAAAmgAAADNAAAAggEAAAX7AAAAAAAAAAIlAAABEAAAARgBAAAFAAAAAQAAAAAAAAAA/AIAAAAB+wAAABoAbQB1AGkAXwBjAG8AcgByAGUAYwB0AG8AcgAAAAAA/////wAAAIMBAAAFAAAEigAAAvMAAAAEAAAABAAAAAgAAAAI/AAAAAEAAAACAAAAAQAAAA4AdABvAG8AbABCAGEAcgEAAAAA/////wAAAAAAAAAA</TOOLBARSDOCKWIDGETS>
	</PRINCIPAL>
	<VENTANA>
		<VNAME>BcAsientoBase</VNAME>
		<VX>42</VX>
		<VY>26</VY>
		<VWIDTH>1053</VWIDTH>
		<VHEIGHT>607</VHEIGHT>
		<VVISIBLE>FALSE</VVISIBLE>
		<VMAXIMIZED>FALSE</VMAXIMIZED>
		<VACTIVEWINDOW>FALSE</VACTIVEWINDOW>	</VENTANA>
</CONFIG>
